============================[ Problem Statistics ]=============================|                                                                             ||  Number of variables:          4242                                         ||  Number of clauses:           10184                                         ||  Parse time:                   0.60 s                                       ||                                                                             |============================[ Search Statistics ]==============================| Conflicts |          ORIGINAL         |          LEARNT          | Progress ||           |    Vars  Clauses Literals |    Limit  Clauses Lit/Cl |          |===============================================================================|       100 |    1591     6389   912300 |     2342      100     53 | 62.501 % ||       250 |    1591     6389   912300 |     2576      250     75 | 62.495 % |===============================================================================restarts              : 3conflicts             : 316            (354 /sec)decisions             : 581            (0.00 % random) (651 /sec)propagations          : 11885          (13324 /sec)conflict literals     : 25191          (94.70 % deleted)CPU time              : 0.892 sSATISFIABLE